route
16
20
59
71
61
64
56
75
52
19
63
6
69
41
67
7
58
47
60
72
55
28
17
8
32
2
34
24
45
66
4
10
33
14
29
11
27
54
23
48
25
13
38
57
44
15
76
77
31
18
3
74
9
35
12
70
65
49
21
46
43
5
1
30
37
26
53
22
0
68
78
36
42
50
40
51
73
39
62
